     30      1      6    256     11
     40
     22     17      8      2     21     13      9     21     14     14     18     11     26     12     28     13     12     18      4     14     13      8     14     18     20     17      5     19     14      0     17     13     16     22     14     28     10      9      5     10     26      0     18     17     14     16     24     14      5      8     13     16     11     10     19      0     13     14     13     21     23      4     22     20     13      0      2      6     17     10     13      3     20     12     25     25     21     18     22      0     16      5     25     17     21      1     22     15     10     20     28     23      7     26     13     20      1     29     13     10     26     28      9      5     13     19      6     28     27      3      5      2     20     25      3     14     11     23     21     18     20     26     25     18     24     29     15     23     21     25      8     22     21      3     25     18      9      6     27      4     10     24      5     22     22      9     18     27      6      4     17     14     19      6     10      0     15     29      2      3     23     18     15      6      0     27     14      7     10     18      3     28     14      1     20     14     28     10     17     15
    101    -21     28    -30     77     53     95     23    121     45     55     95     33     46    -33     -6    -15     -4    107    139    103     84    -21    -28    125     92    -27     42     -2    -24    129    124     -6     47    -23     92     16    123     17     65
      2     11	    183     80      5      5      5      0      0      0      0      0      0      0      0      0      0      0      0    -25      0      0      0      0      0    -19      0      0      0      0      0      0      0      0     64      0      0
      5     15	    423    214      5      6      8      0      0      0      0      0    290      0      0      0    -48      0      0      0      0      0      0      0      0      0      0      0    139      0    195      0      0      0      0      0    194
      2     12	    262     85      4      6      7      0      0      0      0      0      0    -42      0      0      0      0      0      0      0      0      0      0      0      0      0      0      0    140      0    109    183      0      0      0     41
      5     13	    253    121      6      6      1      0      0      0      0      0      0    145      0      0      0     11      0      0      0      0      0      0      0      0      2     45      0      0    182      0    -21      0      0      0    -27
      1     15	    427     94      1      3     10      0      0      0      0      0      0      0      0      0      0      0      0      0      0      0      0    169      0      0      0     90    216      0      0    146      0      0      0      0      0
      6     11	    459    310      6      6      8      0    290      0      0      0      0      0     88     42      0      0      0      0      0      0      0      0      0      0      0      0      0    293      0      0      0      0      0      0    -36
      2     14	    466    173      5      5      5      0      0    -42    145      0      0      0      0      0      0      0      0    -35      0      0     22    209     72      0     -6      0    254      0      0      0      0      0    190      0    126
      2     14	    266    185      4      4     10      0      0      0      0      0     88      0      0      0    171      0      0      0      0      0      0      0      0      0      0      0      0      0    118     -8      0      0      0      0    134
      2     14	    104     54      3      5      7      0      0      0      0      0     42      0      0      0      0      0      0      0      0      0      0     44      0      0      0      0      0    -14      0     62      0      0      0      0      0
      6     11	    376     55      6      6      7      0    -48      0      0      0      0      0    171      0      0    130    189      0      0      0      0      0      0      0      0      0    183      0     54      0      0      0      0      0      0
      5     14	    329    101      6      6      2      0      0      0     11      0      0      0      0      0    130      0      0      0      0      0      0      0     55      0      0      0      0      0      0      0      0      0      0    -33      0
      3     15	    346    113      4      5      5      0      0      0      0      0      0      0      0      0    189      0      0      0      0      0      0      0      0     59      0    167      0      0      0    122      0      0      0      0      0
      1     12	    335    129      1      6      6    -25      0      0      0      0      0    -35      0      0      0      0      0      0      0      0      0      0      0      0    152      0      0      0      0      0      0      0      0      0      0
      3     13	    130     86      5      5     10      0      0      0      0      0      0      0      0      0      0      0      0      0      0      0     44      0      0      0     82      0      4      0      0      0      0    102      0      0      0
      1     13	    112     50      2      2      9      0      0      0      0      0      0      0      0      0      0      0      0      0      0      0     23    -11      0      0      0      0     30      0      0      0     42     39      0      0      0
      3     13	    178     87      5      6      5      0      0      0      0      0      0     22      0      0      0      0      0      0     44     23      0      0      0     -5    -26      0      0      0      0     98      0      0      0      0      0
      4     12	    268    168      6      6      5      0      0      0      0    169      0    209      0     44      0      0      0      0      0    -11      0      0     72     20     26      0      0      0      0      0      0      0    172      0      0
      2     12	    152     64      3      4      9      0      0      0      0      0      0     72      0      0      0     55      0      0      0      0      0     72      0      0     90      0      0      0      0      0     -5      0      0     79      0
      1     14	    273    142      1      6      4    -19      0      0      0      0      0      0      0      0      0      0     59      0      0      0     -5     20      0      0      0      0      0      0      0      0    199      0      0      0      0
      2     15	    246     53      4      5      2      0      0      0      2      0      0     -6      0      0      0      0      0    152     82      0    -26     26     90      0      0      0      0      0     45      0      0     84      0      0    105
      6     10	    284    170      6      6      5      0      0      0     45     90      0      0      0      0      0      0    167      0      0      0      0      0      0      0      0      0      0      0      0      0      0      0     46    -30      0
      2     12	    479    101      6      6      6      0    139      0      0    216      0    254      0      0    183      0      0      0      4     30      0      0      0      0      0      0      0    173      0     34      0      0      0      0    105
      3     15	    455    134      6      6      7      0      0    140      0      0    293      0      0    -14      0      0      0      0      0      0      0      0      0      0      0      0    173      0      0      0      0      0      0      0      0
      2     10	    460    191      2      6      8      0    195      0    182      0      0      0    118      0     54      0      0      0      0      0      0      0      0      0     45      0      0      0      0      0      0      0      0     44      0
      5     11	    308    114      6      6      5      0      0    109      0    146      0      0     -8     62      0      0    122      0      0      0     98      0      0      0      0      0     34      0      0      0      0      0      0      0      0
      2     14	    481    207      4      5      1      0      0    183    -21      0      0      0      0      0      0      0      0      0      0     42      0      0     -5    199      0      0      0      0      0      0      0      0      0      0      0
      4     10	    499     86      6      6      6      0      0      0      0      0      0      0      0      0      0      0      0      0    102     39      0      0      0      0     84      0      0      0      0      0      0      0      0      0    -42
      6     13	    269    167      6      6      3     64      0      0      0      0      0    190      0      0      0      0      0      0      0      0      0    172      0      0      0     46      0      0      0      0      0      0      0      0      0
      3     13	    197     95      6      6      2      0      0      0      0      0      0      0      0      0      0    -33      0      0      0      0      0      0     79      0      0    -30      0      0     44      0      0      0      0      0      0
      3     12	    276    146      6      6     10      0    194     41    -27      0    -36    126    134      0      0      0      0      0      0      0      0      0      0      0    105      0    105      0      0      0      0    -42      0      0      0